c clasp version 2.1.1
c Reading from p46.cnf
c Solving...
s SATISFIABLE

c Models        : 1+    
c Time          : 1.926s (Solving: 0.30s 1st Model: 0.30s Unsat: 0.00s)
c CPU Time      : 1.910s
c Choices       : 9123
c Conflicts     : 616
c Restarts      : 1      (Average: 616.00 Last: 436)

c Variables     : 225530 (Eliminated: 70494 Frozen:    0)
c Constraints   : 263416 (Binary: 64.3% Ternary: 34.5% Other:  1.2%)
c Lemmas        : 616    (Binary:  0.2% Ternary:  1.8% Other: 98.1%)
c   Conflict    : 616    (Average Length: 40.1) 
c   Loop        : 0      (Average Length: 0.0) 
c   Other       : 0      (Average Length: 0.0)
c   Deleted     : 0     
